24

1 17 23
2 6 22
3 1 6
4 8 9
5 20 14
6 18 19
7 12 23
8 17 17
9 21 1
10 12 3
11 17 23
12 15 12
13 19 15
14 19 17
15 17 9
16 15 5
17 15 22
18 17 6
19 23 18
20 23 24
21 10 7
22 2 12
23 17 16
24 18 17

177
